\ Model _copy
\ LP format - for model browsing. Use MPS format to capture full model detail.
Minimize
 
Subject To
 R0: - 0.1027555018663406 inp_0_0_0 + 0.0967355296015739 inp_0_0_1
   + 0.0741070359945297 inp_0_0_2 - 0.0285253543406725 inp_0_0_3
   + 0.2199642211198807 inp_0_0_4 - 0.1687576919794083 inp_0_1_0
   - 0.0386234410107136 inp_0_1_1 - 0.15188829600811 inp_0_1_2
   - 0.0702012106776237 inp_0_1_3 - 0.0130996201187372 inp_0_1_4
   - 0.106887549161911 inp_0_2_0 - 0.1114784777164459 inp_0_2_1
   - 0.1828436553478241 inp_0_2_2 - 0.0383601151406765 inp_0_2_3
   - 0.0742222219705582 inp_0_2_4 + 0.0411084108054638 inp_0_3_0
   - 0.0535577349364758 inp_0_3_1 - 0.043282613158226 inp_0_3_2
   - 0.2320202589035034 inp_0_3_3 - 0.1496651023626328 inp_0_3_4
   + 0.1513618230819702 inp_0_4_0 + 0.1843085139989853 inp_0_4_1
   + 0.1169146150350571 inp_0_4_2 + 0.1374678760766983 inp_0_4_3
   + 0.0367694199085236 inp_0_4_4 + lay1_0_0_0 = -0.1614855825901031
Bounds
 inp_0_0_0 >= -0.425212949514389
 -infinity <= inp_0_0_1 <= -0.4232129752635956
 -infinity <= inp_0_0_2 <= -0.4232129752635956
 inp_0_0_3 >= -0.425212949514389
 -infinity <= inp_0_0_4 <= -0.4232129752635956
 inp_0_1_0 >= -0.425212949514389
 inp_0_1_1 >= -0.425212949514389
 inp_0_1_2 >= -0.425212949514389
 inp_0_1_3 >= -0.425212949514389
 inp_0_1_4 >= -0.425212949514389
 inp_0_2_0 >= -0.425212949514389
 inp_0_2_1 >= -0.425212949514389
 inp_0_2_2 >= -0.425212949514389
 inp_0_2_3 >= -0.425212949514389
 inp_0_2_4 >= -0.425212949514389
 -infinity <= inp_0_3_0 <= -0.4232129752635956
 inp_0_3_1 >= -0.425212949514389
 inp_0_3_2 >= -0.425212949514389
 inp_0_3_3 >= -0.425212949514389
 inp_0_3_4 >= -0.425212949514389
 -infinity <= inp_0_4_0 <= -0.4232129752635956
 -infinity <= inp_0_4_1 <= -0.4232129752635956
 -infinity <= inp_0_4_2 <= -0.4232129752635956
 -infinity <= inp_0_4_3 <= -0.4232129752635956
 -infinity <= inp_0_4_4 <= -0.4232129752635956
 -infinity <= lay1_0_0_0 <= -0.5920035243034363
End
